(declare-const delta_i Int)
(declare-const delta_k Int)
(assert (exists
         ((|k'?1| Int) (|S1,0?2| Real) (|i'?3| Int) (KSUM1?4 Int)
            (|K1,0?5| Int) (K?6 Int) (|S1,0?7| Real) (|i'?8| Int)
            (KSUM1?9 Int) (|K1,0?10| Int) (K?11 Int) (|i'?12| Int) (i?13 Int)
            (n?14 Int) (k?15 Int) (l?16 Int))
         (and (< (- k?15) 0) (< (- l?16) 0) (< (+ (- n?14) k?15) 0)
                (<= (- K?11) 0) (<= (- |K1,0?10|) 0)
                (= (+ |K1,0?10| (- K?11)) 0) (<= (+ KSUM1?9 (- K?11)) 0)
                (= (+ (- |S1,0?7|) |i'?8| (- |K1,0?10|)) 0)
                (= (+ (- KSUM1?9) |K1,0?10|) 0) (= (+ |S1,0?7| (- l?16)) 0)
                (or (and (= K?11 0) (= (+ (- |i'?8|) l?16) 0))
                      (and (<= (+ (- K?11) 1) 0) (<= (+ (- n?14) l?16 1) 0)
                             (<= (+ (- l?16) 1) 0) (<= (+ |i'?8| (- n?14)) 0)
                             (<= (+ (- |i'?8|) 2) 0)))
                (= (+ |i'?8| (- K?11) (- l?16)) 0) (<= (- K?11) 0)
                (< (- |i'?8|) 0) (< (- n?14) 0) (<= (+ (- |i'?8|) n?14) 0)
                (<= (- K?6) 0) (<= (- |K1,0?5|) 0) (= (+ |K1,0?5| (- K?6)) 0)
                (<= (+ KSUM1?4 (- K?6)) 0)
                (= (+ (- |S1,0?2|) |i'?3| (- |K1,0?5|)) 0)
                (= (+ (- KSUM1?4) |K1,0?5|) 0) (= (+ |S1,0?2| (- l?16)) 0)
                (or (and (= K?6 0) (= (+ (- |i'?3|) l?16) 0))
                      (and (<= (+ (- K?6) 1) 0) (<= (+ (- n?14) l?16 1) 0)
                             (<= (+ (- k?15) 1) 0) (<= (+ (- l?16) 1) 0)
                             (<= (+ |i'?3| (- n?14)) 0) (<= (+ (- k?15) 1) 0)
                             (<= (+ (- |i'?3|) 2) 0)))
                (= (+ |i'?3| (- K?6) (- l?16)) 0) (<= (- K?6) 0)
                (< (- |i'?3|) 0) (< (- n?14) 0) (< (- k?15) 0)
                (<= (+ (- |i'?3|) n?14) 0) (= (+ |k'?1| (- k?15) -1) 0)
                (= (+ |i'?12| (- |i'?3|)) 0) (= delta_i (+ |i'?12| (- i?13)))
                (= delta_k (+ |k'?1| (- k?15))))))
(check-sat)
